webassembly/ejemplos_dzn/fails/7_unsat_g_all.dzn
TERM = { '.', 'local_17', 'local_10', 's(1)', 'local_25', 's(2)', 'local_9', 's(0)'};
null = '.';
s = 7;
n = 7;
ndeps = 0;
max_registers_sz = 4;
NR = 1;
registers = [|'local_10', 'local_9'|];
dependencies = [| |];
GET_ENUM = { GET1, GET2, GET3, GET4, GET5};
SET_ENUM = { SET1, SET2, SET3, SET4, SET5};
TEE_ENUM = { TEE1, TEE2, TEE3, TEE4, TEE5};
N = 6;
OP = { 'i32.shl_0', 'i32.and_0', 'i32.eqz_0', 'local.get_0', 'local.get_1', 'local.get_2' };
in_ops = [2, 2, 1, 0, 0, 0 ];
out_ops = [1, 1, 1, 1, 1, 1 ];
in1 = ['local_9', 'local_25', 's(1)', '.', '.', '.' ];
in2 = ['local_17', 's(0)', '.', '.', '.', '.' ];
in3 = ['.', '.', '.', '.', '.', '.' ];
out1 = ['s(0)', 's(1)', 's(2)', 'local_9', 'local_17', 'local_25' ];
out2 = ['.', '.', '.', '.', '.', '.' ];
out3 = ['.', '.', '.', '.', '.', '.' ];
comm = [false, true, false, false, false, false ];
gas = [1, 1, 1, 1, 1, 1 ];
sz = [1, 1, 1, 1, 1, 1 ];
stor = [false, false, false, false, false, false ];
lb = [ 1, 1, 1, 1, 1, 1 ];
ub = [ 7, 7, 7, 7, 7, 7 ];
startstack = [ null, null, null, null, null, null, null ];
endstack = [ 's(2)', null, null, null, null, null, null ];
